NAME : eil101.646.tour
COMMENT : Cost = 0_646
COMMENT : Found by LKH [Keld Helsgaun] Thu Nov 16 16:26:15 2017
TYPE : TOUR
DIMENSION : 103
TOUR_SECTION
1
50
102
31
88
7
82
48
19
11
62
10
32
90
63
64
49
36
47
46
8
45
17
84
5
60
83
18
52
89
6
96
99
93
59
92
98
37
100
91
85
61
16
86
38
44
14
42
43
15
57
2
87
97
95
94
13
58
53
101
27
28
26
40
21
73
72
74
22
41
75
56
23
67
39
25
55
4
54
24
29
68
80
12
76
77
3
79
33
51
9
81
78
34
35
65
71
66
20
30
70
103
69
-1
EOF
